&CONTROL
  disk_io = 'low',
  pseudo_dir = '/mnt/d/DeepESense/pseudo/SSSP_1.3.0_PBE_efficiency',
  calculation = 'nscf',
  restart_mode = 'from_scratch',
  verbosity = 'high',
/
&SYSTEM
  degauss = 0.005,
  ecutrho = 480.0,
  ecutwfc = 60.0,
  nbnd = 164,
  occupations = 'smearing',
  smearing = 'marzari-vanderbilt',
  ibrav = 0,
  nat = 36,
  ntyp = 3,
/
&ELECTRONS
  conv_thr = 1d-08,
  electron_maxstep = 200,
  mixing_beta = 0.4,
/
&IONS
/
&CELL
/
ATOMIC_SPECIES
  F  18.9984 f_pbe_v1.4.uspp.F.UPF
  Li  6.9410 li_pbe_v1.4.uspp.F.UPF
  Tb  158.9254 Tb.paw.z_19.atompaw.wentzcovitch.v1.2.upf
ATOMIC_POSITIONS crystal
  Li 0.596604 0.495372 0.696015
  Li 0.403396 0.995372 0.803985
  Li 0.403396 0.504628 0.303985
  Li 0.596604 0.004628 0.196015
  Li 0.973230 0.984609 0.840320
  Li 0.026770 0.484609 0.659680
  Li 0.026770 0.015391 0.159680
  Li 0.973230 0.515391 0.340320
  Tb 0.750806 0.519060 0.001554
  Tb 0.249194 0.019060 0.498446
  Tb 0.249194 0.480940 0.998446
  Tb 0.750806 0.980940 0.501554
  F 0.540727 0.192192 0.577967
  F 0.459273 0.692192 0.922033
  F 0.459273 0.807808 0.422033
  F 0.540727 0.307808 0.077967
  F 0.913297 0.352931 0.182175
  F 0.086703 0.852931 0.317825
  F 0.086703 0.647069 0.817825
  F 0.913297 0.147069 0.682175
  F 0.959416 0.235540 0.453980
  F 0.040584 0.735540 0.046020
  F 0.040584 0.764460 0.546020
  F 0.959416 0.264460 0.953980
  F 0.592824 0.229167 0.337311
  F 0.407176 0.729167 0.162689
  F 0.407176 0.770833 0.662689
  F 0.592824 0.270833 0.837311
  F 0.751438 0.614347 0.603561
  F 0.248562 0.114347 0.896439
  F 0.248562 0.385653 0.396439
  F 0.751438 0.885653 0.103561
  F 0.758253 0.740085 0.337212
  F 0.241747 0.240085 0.162788
  F 0.241747 0.259915 0.662788
  F 0.758253 0.759915 0.837212
K_POINTS automatic
  7 10 4 0 0 0
CELL_PARAMETERS angstrom
  0.000000 7.668957 0.000000
  5.082072 0.000000 0.000000
  0.000000 -3.314881 -11.238306