Li8 Tb4 F24
1.0
   0.0000000000000000    7.6689569000158686    0.0000000000000000
   5.0820720000000001    0.0000000000000000    0.0000000000000000
   0.0000000000000000   -3.3148813117903164  -11.2383055373573253
Li Tb F
8 4 24
direct
   0.5966040000000000    0.4953719999999990    0.6960150000000005 Li
   0.4033960000000000    0.9953719999999990    0.8039849999999995 Li
   0.4033960000000000    0.5046280000000010    0.3039849999999995 Li
   0.5966040000000000    0.0046280000000010    0.1960150000000005 Li
   0.9732300000000000    0.9846089999999990    0.8403200000000004 Li
   0.0267700000000000    0.4846089999999990    0.6596799999999996 Li
   0.0267700000000000    0.0153910000000010    0.1596799999999996 Li
   0.9732300000000000    0.5153910000000010    0.3403200000000004 Li
   0.7508060000000000    0.5190600000000001    0.0015539999999995 Tb
   0.2491940000000000    0.0190600000000001    0.4984460000000005 Tb
   0.2491940000000000    0.4809399999999999    0.9984460000000005 Tb
   0.7508060000000000    0.9809399999999999    0.5015539999999996 Tb
   0.5407270000000000    0.1921919999999990    0.5779670000000005 F
   0.4592730000000000    0.6921919999999990    0.9220329999999995 F
   0.4592730000000000    0.8078080000000010    0.4220329999999995 F
   0.5407270000000000    0.3078080000000010    0.0779670000000005 F
   0.9132969999999990    0.3529310000000000    0.1821750000000004 F
   0.0867030000000010    0.8529309999999999    0.3178249999999996 F
   0.0867030000000010    0.6470690000000000    0.8178249999999996 F
   0.9132969999999990    0.1470690000000000    0.6821750000000004 F
   0.9594159999999990    0.2355400000000001    0.4539800000000005 F
   0.0405840000000010    0.7355400000000001    0.0460199999999995 F
   0.0405840000000010    0.7644599999999999    0.5460199999999995 F
   0.9594159999999990    0.2644599999999999    0.9539800000000005 F
   0.5928240000000000    0.2291670000000000    0.3373109999999995 F
   0.4071760000000000    0.7291669999999999    0.1626890000000005 F
   0.4071760000000000    0.7708330000000000    0.6626890000000005 F
   0.5928240000000000    0.2708330000000000    0.8373109999999995 F
   0.7514379999999991    0.6143469999999990    0.6035610000000005 F
   0.2485620000000009    0.1143469999999990    0.8964389999999995 F
   0.2485620000000009    0.3856530000000010    0.3964389999999995 F
   0.7514379999999991    0.8856530000000010    0.1035610000000005 F
   0.7582530000000000    0.7400850000000000    0.3372120000000004 F
   0.2417470000000000    0.2400850000000000    0.1627879999999996 F
   0.2417470000000000    0.2599150000000000    0.6627879999999996 F
   0.7582530000000000    0.7599150000000000    0.8372120000000005 F
