&CONTROL
  disk_io = 'low',
  pseudo_dir = '/mnt/d/DeepESense/pseudo/SSSP_1.3.0_PBE_efficiency',
  calculation = 'nscf',
  restart_mode = 'from_scratch',
  verbosity = 'high',
/
&SYSTEM
  degauss = 0.005,
  ecutrho = 480.0,
  ecutwfc = 60.0,
  nbnd = 172,
  occupations = 'smearing',
  smearing = 'marzari-vanderbilt',
  ibrav = 0,
  nat = 32,
  ntyp = 3,
/
&ELECTRONS
  conv_thr = 1d-08,
  electron_maxstep = 200,
  mixing_beta = 0.4,
/
&IONS
/
&CELL
/
ATOMIC_SPECIES
  Ba  137.3270 Ba.pbe-spn-kjpaw_psl.1.0.0.UPF
  F  18.9984 f_pbe_v1.4.uspp.F.UPF
  Tb  158.9254 Tb.paw.z_19.atompaw.wentzcovitch.v1.2.upf
ATOMIC_POSITIONS crystal
  Ba 0.288029 0.765822 0.542697
  Ba 0.298713 0.315919 0.767439
  Ba 0.711971 0.234178 0.457303
  Ba 0.701287 0.684081 0.232561
  Tb 0.770266 0.217942 0.938138
  Tb 0.174435 0.262042 0.275928
  Tb 0.229734 0.782058 0.061862
  Tb 0.825565 0.737958 0.724072
  F 0.090133 0.965116 0.693853
  F 0.402140 0.627602 0.995734
  F 0.909867 0.034884 0.306147
  F 0.239914 0.046469 0.141304
  F 0.760086 0.953531 0.858696
  F 0.089647 0.756214 0.269266
  F 0.878730 0.610423 0.497179
  F 0.129290 0.720810 0.796111
  F 0.489097 0.628522 0.701450
  F 0.313623 0.178406 0.467562
  F 0.095680 0.240258 0.014605
  F 0.307043 0.547735 0.289620
  F 0.692957 0.452265 0.710380
  F 0.597860 0.372398 0.004266
  F 0.870710 0.279190 0.203889
  F 0.519199 0.102121 0.718041
  F 0.500000 0.000000 0.000000
  F 0.904320 0.759742 0.985395
  F 0.910353 0.243786 0.730734
  F 0.480801 0.897879 0.281959
  F 0.510903 0.371478 0.298550
  F 0.000000 0.500000 0.000000
  F 0.121270 0.389577 0.502821
  F 0.686377 0.821594 0.532438
K_POINTS automatic
  7 6 6 0 0 0
CELL_PARAMETERS angstrom
  7.522837 0.000000 0.000000
  -3.506147 8.079623 0.000000
  -1.026059 -2.507649 8.522895