Ba4 Tb4 F24
1.0
   7.5228370000000000    0.0000000000000000    0.0000000000000000
  -3.5061470000000008    8.0796229999999998    0.0000000000000000
  -1.0260590000000003   -2.5076490000000002    8.5228950000000019
Ba Tb F
4 4 24
direct
   0.2880289999999999    0.7658219999999998    0.5426970000000000 Ba
   0.2987129999999998    0.3159189999999999    0.7674389999999998 Ba
   0.7119710000000001    0.2341780000000002    0.4573030000000000 Ba
   0.7012870000000002    0.6840810000000002    0.2325610000000002 Ba
   0.7702659999999999    0.2179419999999999    0.9381379999999988 Tb
   0.1744349999999990    0.2620419999999999    0.2759279999999999 Tb
   0.2297340000000001    0.7820580000000001    0.0618620000000012 Tb
   0.8255650000000010    0.7379580000000001    0.7240720000000000 Tb
   0.0901329999999990    0.9651159999999998    0.6938529999999991 F
   0.4021399999999999    0.6276019999999999    0.9957339999999998 F
   0.9098670000000010    0.0348840000000002    0.3061470000000009 F
   0.2399139999999999    0.0464689999999990    0.1413039999999990 F
   0.7600860000000000    0.9535310000000010    0.8586960000000010 F
   0.0896469999999990    0.7562139999999988    0.2692659999999999 F
   0.8787300000000000    0.6104229999999990    0.4971789999999998 F
   0.1292899999999999    0.7208100000000001    0.7961109999999998 F
   0.4890969999999999    0.6285219999999999    0.7014500000000000 F
   0.3136229999999999    0.1784059999999990    0.4675619999999998 F
   0.0956800000000000    0.2402579999999999    0.0146050000000000 F
   0.3070430000000000    0.5477350000000000    0.2896199999999999 F
   0.6929570000000000    0.4522650000000000    0.7103800000000000 F
   0.5978600000000001    0.3723980000000001    0.0042660000000002 F
   0.8707100000000001    0.2791899999999999    0.2038890000000002 F
   0.5191989999999999    0.1021209999999989    0.7180409999999989 F
   0.5000000000000000    0.0000000000000000    0.0000000000000000 F
   0.9043200000000000    0.7597420000000001    0.9853950000000000 F
   0.9103530000000011    0.2437860000000012    0.7307340000000001 F
   0.4808010000000001    0.8978790000000011    0.2819590000000011 F
   0.5109030000000001    0.3714780000000001    0.2985500000000000 F
   0.0000000000000000    0.5000000000000000    0.0000000000000000 F
   0.1212700000000000    0.3895770000000010    0.5028210000000002 F
   0.6863770000000001    0.8215940000000010    0.5324380000000002 F
