&CONTROL
  pseudo_dir = '/mnt/d/DeepESense/pseudo/SSSP_1.3.0_PBE_efficiency',
  calculation = 'nscf',
  restart_mode = 'from_scratch',
  verbosity = 'high',
/
&SYSTEM
  degauss = 0.005,
  ecutrho = 480.0,
  ecutwfc = 60.0,
  nbnd = 204,
  occupations = 'smearing',
  smearing = 'marzari-vanderbilt',
  ibrav = 0,
  nat = 52,
  ntyp = 3,
/
&ELECTRONS
  conv_thr = 1d-08,
  electron_maxstep = 200,
  mixing_beta = 0.4,
/
&IONS
/
&CELL
/
ATOMIC_SPECIES
  F  18.9984 f_pbe_v1.4.uspp.F.UPF
  Li  6.9410 li_pbe_v1.4.uspp.F.UPF
  Tb  158.9254 Tb.paw.z_19.atompaw.wentzcovitch.v1.2.upf
ATOMIC_POSITIONS crystal
  Li 0.883329 0.939059 0.631554
  Li 0.383329 0.060941 0.868446
  Li 0.616671 0.560941 0.131554
  Li 0.116671 0.439059 0.368446
  Li 0.116671 0.060941 0.368446
  Li 0.616671 0.939059 0.131554
  Li 0.383329 0.439059 0.868446
  Li 0.883329 0.560941 0.631554
  Li 0.371777 0.921447 0.601948
  Li 0.871777 0.078553 0.898052
  Li 0.128223 0.578553 0.101948
  Li 0.628223 0.421447 0.398052
  Li 0.628223 0.078553 0.398052
  Li 0.128223 0.921447 0.101948
  Li 0.871777 0.421447 0.898052
  Li 0.371777 0.578553 0.601948
  Tb 0.634182 0.750000 0.864708
  Tb 0.134182 0.250000 0.635292
  Tb 0.865818 0.750000 0.364708
  Tb 0.365818 0.250000 0.135292
  F 0.859545 0.889195 0.987471
  F 0.359545 0.110805 0.512529
  F 0.640455 0.610805 0.487471
  F 0.140455 0.389195 0.012529
  F 0.140455 0.110805 0.012529
  F 0.640455 0.889195 0.487471
  F 0.359545 0.389195 0.512529
  F 0.859545 0.610805 0.987471
  F 0.388213 0.884719 0.981459
  F 0.888213 0.115281 0.518541
  F 0.111787 0.615281 0.481459
  F 0.611787 0.384719 0.018541
  F 0.611787 0.115281 0.018541
  F 0.111787 0.884719 0.481459
  F 0.888213 0.384719 0.518541
  F 0.388213 0.615281 0.981459
  F 0.633682 0.531418 0.766618
  F 0.133682 0.468582 0.733382
  F 0.866318 0.968582 0.266618
  F 0.366318 0.031418 0.233382
  F 0.366318 0.468582 0.233382
  F 0.866318 0.531418 0.266618
  F 0.133682 0.031418 0.733382
  F 0.633682 0.968582 0.766618
  F 0.889533 0.750000 0.698651
  F 0.389533 0.250000 0.801349
  F 0.610467 0.750000 0.198651
  F 0.110467 0.250000 0.301349
  F 0.375676 0.750000 0.698730
  F 0.875676 0.250000 0.801270
  F 0.124324 0.750000 0.198730
  F 0.624324 0.250000 0.301270
K_POINTS automatic
  9 5 5 0 0 0
CELL_PARAMETERS angstrom
  5.832096 0.000000 0.000000
  0.000000 9.912033 0.000000
  0.000000 0.000000 10.074722