Li16 Tb4 F32
1.0
   5.8320959999999999    0.0000000000000000    0.0000000000000004
   0.0000000000000016    9.9120329999999992    0.0000000000000006
   0.0000000000000000    0.0000000000000000   10.0747219999999995
Li Tb F
16 4 32
direct
   0.8833289999999989    0.9390590000000002    0.6315539999999999 Li
   0.3833289999999989    0.0609409999999998    0.8684460000000001 Li
   0.6166710000000011    0.5609409999999998    0.1315539999999999 Li
   0.1166710000000011    0.4390590000000003    0.3684460000000001 Li
   0.1166710000000011    0.0609409999999998    0.3684460000000001 Li
   0.6166710000000011    0.9390590000000002    0.1315539999999999 Li
   0.3833289999999989    0.4390590000000003    0.8684460000000001 Li
   0.8833289999999989    0.5609409999999998    0.6315539999999999 Li
   0.3717769999999989    0.9214469999999992    0.6019480000000010 Li
   0.8717769999999989    0.0785530000000008    0.8980519999999990 Li
   0.1282230000000011    0.5785530000000008    0.1019480000000010 Li
   0.6282230000000011    0.4214469999999992    0.3980519999999990 Li
   0.6282230000000011    0.0785530000000008    0.3980519999999990 Li
   0.1282230000000011    0.9214469999999992    0.1019480000000010 Li
   0.8717769999999989    0.4214469999999992    0.8980519999999990 Li
   0.3717769999999989    0.5785530000000008    0.6019480000000010 Li
   0.6341819999999999    0.7500000000000000    0.8647080000000000 Tb
   0.1341820000000000    0.2500000000000000    0.6352920000000000 Tb
   0.8658180000000001    0.7500000000000000    0.3647080000000000 Tb
   0.3658180000000001    0.2500000000000000    0.1352920000000000 Tb
   0.8595449999999999    0.8891950000000002    0.9874710000000000 F
   0.3595449999999998    0.1108049999999998    0.5125290000000000 F
   0.6404550000000001    0.6108049999999998    0.4874710000000000 F
   0.1404550000000001    0.3891950000000002    0.0125290000000000 F
   0.1404550000000001    0.1108049999999998    0.0125290000000000 F
   0.6404550000000001    0.8891950000000002    0.4874710000000000 F
   0.3595449999999998    0.3891950000000002    0.5125290000000000 F
   0.8595449999999999    0.6108049999999998    0.9874710000000000 F
   0.3882129999999999    0.8847189999999993    0.9814590000000000 F
   0.8882129999999999    0.1152810000000007    0.5185410000000000 F
   0.1117870000000001    0.6152810000000007    0.4814590000000001 F
   0.6117870000000001    0.3847189999999991    0.0185410000000000 F
   0.6117870000000001    0.1152810000000007    0.0185410000000000 F
   0.1117870000000001    0.8847189999999993    0.4814590000000001 F
   0.8882129999999999    0.3847189999999991    0.5185410000000000 F
   0.3882129999999999    0.6152810000000007    0.9814590000000000 F
   0.6336820000000000    0.5314179999999999    0.7666180000000010 F
   0.1336819999999999    0.4685820000000001    0.7333819999999990 F
   0.8663180000000000    0.9685820000000001    0.2666180000000011 F
   0.3663180000000000    0.0314179999999999    0.2333819999999990 F
   0.3663180000000000    0.4685820000000001    0.2333819999999990 F
   0.8663180000000000    0.5314179999999999    0.2666180000000011 F
   0.1336819999999999    0.0314179999999999    0.7333819999999990 F
   0.6336820000000000    0.9685820000000001    0.7666180000000010 F
   0.8895329999999989    0.7500000000000000    0.6986510000000000 F
   0.3895329999999988    0.2500000000000000    0.8013490000000000 F
   0.6104670000000011    0.7500000000000000    0.1986509999999999 F
   0.1104670000000011    0.2500000000000000    0.3013490000000000 F
   0.3756759999999999    0.7500000000000000    0.6987300000000000 F
   0.8756759999999999    0.2500000000000000    0.8012700000000000 F
   0.1243240000000001    0.7500000000000000    0.1987299999999999 F
   0.6243240000000001    0.2500000000000000    0.3012700000000000 F
