B4 O8 F12
1.0
   0.0000000000000000    5.8896402437764435    0.0000000000000000
   7.4402302599999999    0.0000000000000000    0.0000000000000000
   0.0000000000000000   -1.0403700185242890   -7.7369509172007582
B O F
4 8 12
direct
   0.3106839200000001    0.6508476000000001    0.0893518599999999 B
   0.6893160799999999    0.1508476000000001    0.4106481400000001 B
   0.6893160799999999    0.3491523999999999    0.9106481400000001 B
   0.3106839200000001    0.8491523999999999    0.5893518599999998 B
   0.9063593600000001    0.8170796100000000    0.0118090300000000 O
   0.0936406399999999    0.3170796100000000    0.4881909700000000 O
   0.0936406399999999    0.1829203900000000    0.9881909700000000 O
   0.9063593600000001    0.6829203900000000    0.5118090300000000 O
   0.7937464100000000    0.8216886100000000    0.8687982900000000 O
   0.2062535900000000    0.3216886100000000    0.6312017100000000 O
   0.2062535900000000    0.1783113900000000    0.1312017100000000 O
   0.7937464100000000    0.6783113900000000    0.3687982900000000 O
   0.2360610500000001    0.5839025900000000    0.2277193399999999 F
   0.7639389499999999    0.0839025900000000    0.2722806600000001 F
   0.7639389499999999    0.4160974100000000    0.7722806600000001 F
   0.2360610500000001    0.9160974100000000    0.7277193399999999 F
   0.2765708100000001    0.5608022400000000    0.9416136400000000 F
   0.7234291899999999    0.0608022400000000    0.5583863600000000 F
   0.7234291899999999    0.4391977600000000    0.0583863600000000 F
   0.2765708100000001    0.9391977600000000    0.4416136400000000 F
   0.4222449500000001    0.8044788700000000    0.0974432500000000 F
   0.5777550499999999    0.3044788700000000    0.4025567500000000 F
   0.5777550499999999    0.1955211300000000    0.9025567500000000 F
   0.4222449500000001    0.6955211300000000    0.5974432500000000 F
