Na3 Pr3 F12
1.0
   6.0905036461459980    0.0000000000000000    0.0000000000000000
   3.0349561350518748    6.4517707362618095    0.0000000000000000
   3.0368803714764900    2.1175599561292699    6.1062310029199871
Na Pr F
3 3 12
direct
   0.6692467200000000    0.4703707699999999    0.1789502999999990 Na
   0.6620491500000000    0.9914489500000000    0.6951535900000000 Na
   0.3296334599999999    0.4232382600000000    0.9130960800000000 Na
   0.0029360899999999    0.9942346300000000    0.0022150100000000 Pr
   0.9973279600000000    0.4937304800000000    0.5096758400000000 Pr
   0.3354747999999990    0.9173995700000001    0.4127928500000000 Pr
   0.2621004100000000    0.6198812000000000    0.1343734000000000 F
   0.2797302300000000    0.1246352500000000    0.6300204700000001 F
   0.9804456600000000    0.3774387800000000    0.8899391700000000 F
   0.9700180200000000    0.8841673000000000    0.3907450999999991 F
   0.7556832300000000    0.7278717300000001    0.2358315500000000 F
   0.7528331300000000    0.2364505199999999    0.7486057700000001 F
   0.3711291700000000    0.0048599399999999    0.0335209800000000 F
   0.3690088499999999    0.5363920999999990    0.5054372700000000 F
   0.5883060000000000    0.7049274200000000    0.6671948100000000 F
   0.5925183300000000    0.1665298900000000    0.2000778599999999 F
   0.0445853600000000    0.8119863300000000    0.7747598700000000 F
   0.0369744500000000    0.2764388699999999    0.3156070700000000 F
