Rb2 Ho2 Be2 F12
1.0
   0.0000000000000000    6.5438450000000001    0.0000000000000000
   5.8765830000000001    0.0000000000000000    0.0000000000000000
   0.0000000000000000   -2.8707499999999992   -6.5960950000000000
Rb Ho Be F
2 2 2 12
direct
   0.9236209999999995    0.7500000000000000    0.7902509999999995 Rb
   0.0763790000000005    0.2500000000000000    0.2097490000000005 Rb
   0.6097099999999995    0.7500000000000000    0.1812830000000004 Ho
   0.3902900000000005    0.2500000000000000    0.8187169999999996 Ho
   0.2339859999999996    0.7500000000000000    0.4661209999999996 Be
   0.7660140000000004    0.2500000000000000    0.5338790000000004 Be
   0.2392460000000005    0.5346649999999999    0.5964240000000004 F
   0.7607539999999995    0.4653350000000001    0.4035759999999996 F
   0.7607539999999995    0.0346649999999999    0.4035759999999996 F
   0.2392460000000005    0.9653350000000001    0.5964240000000004 F
   0.4350310000000004    0.7500000000000000    0.4014560000000005 F
   0.5649689999999996    0.2500000000000000    0.5985439999999995 F
   0.3269019999999996    0.5008899999999999    0.0325170000000005 F
   0.6730980000000004    0.4991100000000001    0.9674829999999995 F
   0.6730980000000004    0.0008899999999999    0.9674829999999995 F
   0.3269019999999996    0.9991100000000001    0.0325170000000005 F
   0.0067949999999994    0.7500000000000000    0.2681270000000004 F
   0.9932050000000006    0.2500000000000000    0.7318729999999996 F
