Li2 F2
1.0
   1.5304699087355293   -2.6508516413852394    0.0000000000000000
   1.5304699087355293    2.6508516413852394    0.0000000000000000
   0.0000000000000000    0.0000000000000000    4.8073245700000005
Li F
2 2
direct
   0.3333333333333333    0.6666666666666666    0.3811542600000002 Li
   0.6666666666666667    0.3333333333333333    0.8811542600000002 Li
   0.3333333333333333    0.6666666666666666    0.9938437400000002 F
   0.6666666666666667    0.3333333333333333    0.4938437400000002 F
