K2 Yb6 F20
1.0
   0.0000000000000009    5.6295836477997154    5.6295836477997154
   5.6295836477997154    0.0000000000000000    5.6295836477997154
   5.6295836477997163    5.6295836477997154    0.0000000000000007
K Yb F
2 6 20
direct
   0.2499999999999998    0.2500000000000001    0.2500000000000001 K
   0.7500000000000000    0.7500000000000000    0.7500000000000001 K
   0.7400665866783959    0.2599334133216040    0.2599334133216040 Yb
   0.2599334133216039    0.2599334133216038    0.7400665866783960 Yb
   0.7400665866783960    0.2599334133216040    0.7400665866783959 Yb
   0.2599334133216038    0.7400665866783959    0.7400665866783959 Yb
   0.2599334133216037    0.7400665866783962    0.2599334133216040 Yb
   0.7400665866783961    0.7400665866783961    0.2599334133216040 Yb
   0.0000000000000000    0.6685559937495641    0.3314440062504360 F
   0.3314440062504360    0.6685559937495640    0.9999999999999999 F
   0.9999999999999999    0.6685559937495640    0.9999999999999999 F
   0.3314440062504360    0.0000000000000001    0.0000000000000001 F
   0.3881923320475829    0.8354230038572512    0.3881923320475831 F
   0.6118076679524171    0.6118076679524171    0.6118076679524170 F
   0.8354230038572510    0.3881923320475829    0.3881923320475826 F
   1.0000000000000000    1.0000000000000000    0.3314440062504360 F
   0.3881923320475829    0.3881923320475829    0.8354230038572510 F
   0.3881923320475829    0.3881923320475831    0.3881923320475830 F
   0.6118076679524168    0.6118076679524170    0.1645769961427488 F
   0.0000000000000000    0.3314440062504361    0.6685559937495640 F
   0.6685559937495640    0.0000000000000001    0.0000000000000001 F
   0.6685559937495640    0.0000000000000000    0.3314440062504360 F
   0.3314440062504360    0.0000000000000000    0.6685559937495640 F
   0.9999999999999999    0.3314440062504360    0.9999999999999999 F
   0.6118076679524170    0.1645769961427490    0.6118076679524169 F
   0.6685559937495640    0.3314440062504361    0.9999999999999999 F
   0.1645769961427490    0.6118076679524171    0.6118076679524169 F
   0.9999999999999999    1.0000000000000000    0.6685559937495640 F
