&CONTROL
  disk_io = 'low',
  pseudo_dir = '/mnt/d/DeepESense/pseudo/SSSP_1.3.0_PBE_efficiency',
  calculation = 'scf',
  restart_mode = 'from_scratch',
  tprnfor = .TRUE.,
  tstress = .TRUE.,
/
&SYSTEM
  degauss = 0.005,
  ecutrho = 480.0,
  ecutwfc = 60.0,
  occupations = 'smearing',
  smearing = 'marzari-vanderbilt',
  ibrav = 0,
  nat = 28,
  ntyp = 3,
/
&ELECTRONS
  conv_thr = 1d-08,
  electron_maxstep = 200,
  mixing_beta = 0.4,
/
&IONS
/
&CELL
/
ATOMIC_SPECIES
  F  18.9984 f_pbe_v1.4.uspp.F.UPF
  K  39.0983 K.pbe-spn-kjpaw_psl.1.0.0.UPF
  Yb  173.0400 Yb.paw.z_24.atompaw.wentzcovitch.v1.2.upf
ATOMIC_POSITIONS crystal
  K 0.250000 0.250000 0.250000
  K 0.750000 0.750000 0.750000
  Yb 0.740067 0.259933 0.259933
  Yb 0.259933 0.259933 0.740067
  Yb 0.740067 0.259933 0.740067
  Yb 0.259933 0.740067 0.740067
  Yb 0.259933 0.740067 0.259933
  Yb 0.740067 0.740067 0.259933
  F 0.000000 0.668556 0.331444
  F 0.331444 0.668556 1.000000
  F 1.000000 0.668556 1.000000
  F 0.331444 0.000000 0.000000
  F 0.388192 0.835423 0.388192
  F 0.611808 0.611808 0.611808
  F 0.835423 0.388192 0.388192
  F 1.000000 1.000000 0.331444
  F 0.388192 0.388192 0.835423
  F 0.388192 0.388192 0.388192
  F 0.611808 0.611808 0.164577
  F 0.000000 0.331444 0.668556
  F 0.668556 0.000000 0.000000
  F 0.668556 0.000000 0.331444
  F 0.331444 0.000000 0.668556
  F 1.000000 0.331444 1.000000
  F 0.611808 0.164577 0.611808
  F 0.668556 0.331444 1.000000
  F 0.164577 0.611808 0.611808
  F 1.000000 1.000000 0.668556
K_POINTS automatic
  4 4 4 0 0 0
CELL_PARAMETERS angstrom
  0.000000 5.629584 5.629584
  5.629584 0.000000 5.629584
  5.629584 5.629584 0.000000