Cs2 Pr1 F6
1.0
   3.6298922692998974   -6.2883411169817700   -0.0000000000000002
   3.6298922692998992    6.2883411169817700    0.0000000000000006
   0.0000000000000000    0.0000000000000000    3.8368108999999988
Cs Pr F
2 1 6
direct
   0.6666429000000000    0.3333317800000013    0.5000000000000000 Cs
   0.3333317800000011    0.6666429000000001    0.5000000000000000 Cs
   0.0001929500000000    0.0001929500000000    0.0000000000000000 Pr
   0.2135309199999998    0.0000514199999999    0.5000000000000001 F
   0.7863960949999997    0.7863960949999997    0.5000000000000000 F
   0.0000514199999997    0.2135309199999997    0.5000000000000001 F
   0.6727159300000000    0.0000073700000001    1.0000000000000000 F
   0.3271493400000000    0.3271493400000001    0.0000000000000000 F
   0.0000073700000000    0.6727159300000000    0.0000000000000000 F
