Ni2 F4
1.0
   3.0795428000000000    0.0000000000000000    0.0000000000000002
   0.0000000000000007    4.5849407700000002    0.0000000000000003
   0.0000000000000000    0.0000000000000000    4.6763261400000005
Ni F
2 4
direct
   0.0000000000000000    0.0000000000000000    0.0000000000000000 Ni
   0.5000000000000000    0.5000000000000000    0.5000000000000000 Ni
   0.0000000000000000    0.2878925700000000    0.3191676300000000 F
   0.5000000000000000    0.2121074300000000    0.8191676299999999 F
   0.0000000000000000    0.7121074300000000    0.6808323700000001 F
   0.5000000000000000    0.7878925700000000    0.1808323700000000 F
